p edge 225 224 98
e 1 86
e 1 39
e 2 68
e 2 191
e 3 193
e 3 65
e 4 213
e 5 117
e 6 110
e 6 162
e 7 59
e 7 174
e 7 56
e 8 140
e 9 219
e 9 174
e 10 18
e 10 14
e 10 215
e 11 63
e 11 176
e 11 150
e 12 221
e 12 17
e 13 119
e 13 125
e 14 175
e 15 185
e 15 182
e 16 75
e 16 156
e 16 38
e 16 136
e 16 100
e 17 224
e 19 180
e 19 148
e 20 98
e 21 42
e 21 224
e 21 110
e 22 93
e 23 117
e 23 32
e 24 80
e 24 68
e 25 32
e 26 155
e 26 137
e 26 54
e 27 70
e 27 190
e 27 36
e 28 56
e 28 117
e 29 70
e 30 165
e 31 154
e 31 200
e 32 38
e 33 36
e 34 197
e 35 143
e 36 135
e 36 132
e 37 136
e 38 132
e 39 81
e 40 90
e 40 126
e 40 106
e 40 193
e 41 158
e 41 177
e 42 91
e 43 178
e 44 96
e 44 100
e 45 199
e 46 52
e 46 124
e 47 78
e 47 200
e 47 89
e 48 142
e 49 207
e 49 133
e 50 121
e 50 122
e 51 202
e 51 125
e 51 60
e 52 100
e 53 204
e 53 106
e 54 163
e 54 217
e 55 166
e 55 63
e 57 218
e 57 97
e 58 217
e 58 194
e 59 98
e 59 152
e 59 95
e 60 225
e 61 151
e 62 195
e 64 137
e 65 213
e 66 114
e 66 191
e 66 150
e 67 171
e 67 198
e 67 170
e 69 97
e 71 82
e 72 82
e 72 138
e 72 189
e 72 222
e 73 123
e 73 89
e 74 192
e 74 210
e 74 209
e 76 102
e 76 179
e 76 121
e 77 183
e 77 205
e 79 113
e 80 173
e 81 105
e 81 111
e 81 95
e 83 153
e 84 111
e 85 180
e 86 112
e 87 195
e 87 112
e 88 147
e 88 160
e 88 167
e 88 146
e 88 91
e 89 194
e 89 225
e 90 148
e 92 139
e 93 104
e 93 197
e 94 182
e 94 204
e 97 133
e 97 125
e 99 139
e 101 216
e 101 126
e 103 203
e 103 134
e 106 188
e 107 206
e 108 145
e 108 124
e 109 197
e 109 183
e 113 119
e 115 118
e 115 205
e 116 209
e 117 184
e 118 164
e 118 215
e 120 135
e 121 208
e 121 205
e 122 184
e 123 128
e 124 157
e 127 151
e 129 134
e 129 223
e 130 209
e 131 187
e 132 165
e 134 172
e 136 222
e 137 214
e 139 169
e 139 206
e 140 210
e 141 158
e 142 152
e 143 155
e 144 225
e 146 196
e 148 181
e 149 215
e 150 223
e 150 216
e 151 182
e 153 178
e 153 192
e 156 209
e 157 172
e 159 187
e 159 208
e 161 207
e 162 220
e 168 211
e 168 185
e 169 177
e 170 196
e 182 220
e 186 220
e 194 206
e 199 219
e 201 207
e 212 213
e 213 214
